g3 1 1 0	# problem tp099
 7 2 1 0 2	# vars, constraints, objectives, ranges, eqns
 2 1	# nonlinear constraints, objectives
 0 0	# network constraints: nonlinear, linear
 7 7 7	# nonlinear vars in constraints, objectives, both
 0 0 0 1	# linear network variables; functions; arith, flags
 0 0 0 0 0	# discrete variables: binary, integer, nonlinear (b,c,o)
 14 7	# nonzeros in Jacobian, gradients
 0 0	# max name lengths: constraints, variables
 0 6 0 6 8	# common exprs: b,c,o,c1,o1
b
0 0 1.58
0 0 1.58
0 0 1.58
0 0 1.58
0 0 1.58
0 0 1.58
0 0 1.58
x7
0 0.5
1 0.5
2 0.5
3 0.5
4 0.5
5 0.5
6 0.5
r
4 -3880
4 -229600
V7 0 0
o0
o2
n1250
o41
v0
n-800
V8 0 0
o54
3
v7
o2
n1250
o41
v1
n-800
V9 0 0
o54
3
v8
o2
n3750
o41
v2
n-1600
V10 0 0
o54
3
v9
o2
n3750
o41
v3
n-1600
V11 0 0
o54
3
v10
o2
n3750
o41
v4
n-1600
V12 0 0
o54
3
v11
o2
n9000
o41
v5
n-2880
C0
o1
o2
n-9000
o41
v6
v12
V13 0 2
o0
o2
n15625
o41
v0
n-10000
V14 0 2
o54
4
v13
o2
n25
v7
o2
n15625
o41
v1
n-10000
V15 0 2
o54
4
v14
o2
n50
v8
o2
n93750
o41
v2
n-40000
V16 0 2
o54
4
v15
o2
n50
v9
o2
n93750
o41
v3
n-40000
V17 0 2
o54
4
v16
o2
n50
v10
o2
n93750
o41
v4
n-40000
V18 0 2
o54
4
v17
o2
n90
v11
o2
n405000
o41
v5
n-129600
C1
o54
3
o16
v18
o2
n-90
v12
o2
n-405000
o41
v6
V19 0 3
o2
n1250
o46
v0
V20 0 3
o0
v19
o2
n1250
o46
v1
V21 0 3
o0
v20
o2
n3750
o46
v2
V22 0 3
o0
v21
o2
n3750
o46
v3
V23 0 3
o0
v22
o2
n3750
o46
v4
V24 0 3
o0
v23
o2
n9000
o46
v5
V25 0 3
o0
v24
o2
n9000
o46
v6
V26 0 3
o16
o5
v25
n2
O0 0
v26
k6
2
4
6
8
10
12
J0 7
0 0
1 0
2 0
3 0
4 0
5 0
6 0
J1 7
0 0
1 0
2 0
3 0
4 0
5 0
6 0
G0 7
0 0
1 0
2 0
3 0
4 0
5 0
6 0
